param n := 120;
param c := 1000;
param : V : p w :=
   0	 404	 394
   1	 290	 280
   2	 336	 326
   3	 380	 370
   4	 294	 284
   5	 356	 346
   6	 437	 427
   7	 269	 259
   8	 324	 314
   9	 440	 430
  10	 280	 270
  11	 310	 300
  12	 472	 462
  13	 271	 261
  14	 287	 277
  15	 366	 356
  16	 302	 292
  17	 362	 352
  18	 508	 498
  19	 260	 250
  20	 262	 252
  21	 442	 432
  22	 286	 276
  23	 302	 292
  24	 401	 391
  25	 262	 252
  26	 367	 357
  27	 407	 397
  28	 284	 274
  29	 339	 329
  30	 500	 490
  31	 261	 251
  32	 269	 259
  33	 418	 408
  34	 266	 256
  35	 346	 336
  36	 444	 434
  37	 272	 262
  38	 314	 304
  39	 492	 482
  40	 266	 256
  41	 272	 262
  42	 397	 387
  43	 285	 275
  44	 348	 338
  45	 372	 362
  46	 303	 293
  47	 355	 345
  48	 438	 428
  49	 294	 284
  50	 298	 288
  51	 418	 408
  52	 298	 288
  53	 314	 304
  54	 490	 480
  55	 260	 250
  56	 280	 270
  57	 404	 394
  58	 286	 276
  59	 340	 330
  60	 371	 361
  61	 263	 253
  62	 396	 386
  63	 385	 375
  64	 291	 281
  65	 354	 344
  66	 488	 478
  67	 261	 251
  68	 281	 271
  69	 488	 478
  70	 260	 250
  71	 282	 272
  72	 366	 356
  73	 286	 276
  74	 378	 368
  75	 397	 387
  76	 279	 269
  77	 354	 344
  78	 496	 486
  79	 262	 252
  80	 272	 262
  81	 424	 414
  82	 273	 263
  83	 333	 323
  84	 420	 410
  85	 260	 250
  86	 350	 340
  87	 410	 400
  88	 305	 295
  89	 315	 305
  90	 392	 382
  91	 292	 282
  92	 346	 336
  93	 444	 434
  94	 279	 269
  95	 307	 297
  96	 405	 395
  97	 288	 278
  98	 337	 327
  99	 363	 353
 100	 291	 281
 101	 376	 366
 102	 429	 419
 103	 295	 285
 104	 306	 296
 105	 372	 362
 106	 324	 314
 107	 334	 324
 108	 505	 495
 109	 261	 251
 110	 264	 254
 111	 509	 499
 112	 260	 250
 113	 261	 251
 114	 374	 364
 115	 299	 289
 116	 357	 347
 117	 508	 498
 118	 260	 250
 119	 262	 252
;

set E :=
   0	   5
   0	  17
   0	  25
   0	  29
   0	  40
   0	  64
   0	  68
   0	  81
   0	 114
   1	   5
   1	  46
   1	  49
   1	  63
   1	  67
   1	  68
   1	  74
   1	  82
   1	  88
   1	 100
   1	 107
   1	 110
   1	 115
   1	 118
   1	 119
   2	  30
   2	  49
   2	  53
   2	  79
   2	  99
   2	 108
   2	 111
   3	   5
   3	  14
   3	  20
   3	  33
   3	  40
   3	  54
   3	  63
   3	  64
   3	  88
   3	  91
   3	  99
   3	 100
   3	 106
   3	 109
   3	 113
   4	  12
   4	  18
   4	  40
   4	  42
   4	  46
   4	  50
   4	  63
   4	  65
   4	  66
   4	  81
   4	  85
   4	  94
   4	  95
   4	 110
   5	  12
   5	  17
   5	  24
   5	  57
   5	  64
   5	  67
   5	  90
   5	 101
   5	 105
   6	  22
   6	  46
   6	  58
   6	  60
   6	  78
   6	  80
   6	 101
   6	 110
   6	 111
   6	 113
   6	 117
   7	  14
   7	  19
   7	  28
   7	  33
   7	  37
   7	  41
   7	  45
   7	  50
   7	  63
   7	  65
   7	  76
   7	  84
   7	  85
   7	  92
   7	 118
   8	  11
   8	  12
   8	  14
   8	  24
   8	  25
   8	  32
   8	  37
   8	  53
   8	  58
   8	  77
   8	  79
   8	 107
   9	  30
   9	  32
   9	  39
   9	  46
   9	  60
   9	  83
   9	  87
   9	  94
   9	  98
   9	 110
   9	 112
   9	 113
   9	 116
  10	  16
  10	  17
  10	  33
  10	  40
  10	  44
  10	  47
  10	  53
  10	  72
  11	  13
  11	  15
  11	  42
  11	  50
  11	  51
  11	  62
  11	  92
  12	  17
  12	  18
  12	  25
  12	  46
  12	  55
  12	  65
  12	  77
  12	  89
  12	  92
  12	  94
  12	  98
  12	  99
  12	 102
  12	 109
  13	  22
  13	  23
  13	  27
  13	  49
  13	  54
  13	  56
  13	  58
  13	  68
  13	  80
  14	  21
  14	  33
  14	  37
  14	  63
  14	  69
  14	  73
  14	  82
  14	  85
  14	 106
  14	 114
  15	  18
  15	  21
  15	  56
  16	  27
  16	  38
  16	  45
  16	  49
  16	  52
  16	  60
  16	  96
  16	 111
  16	 112
  16	 116
  17	  26
  17	  28
  17	  52
  17	  81
  17	  85
  17	 112
  17	 116
  18	  29
  18	  46
  18	  52
  18	  54
  18	  55
  18	  59
  18	  60
  18	  84
  18	 103
  18	 108
  18	 112
  19	  29
  19	  52
  19	  54
  19	  60
  19	  82
  19	  98
  19	 102
  19	 105
  20	  35
  20	  41
  20	  43
  20	  56
  20	  81
  20	  82
  20	  98
  20	 102
  21	  24
  21	  38
  21	  40
  21	  58
  21	  67
  21	  79
  21	  88
  22	  38
  22	  49
  22	  76
  22	 104
  23	  36
  23	  63
  23	  65
  23	  70
  23	  74
  23	  88
  23	  89
  23	 106
  23	 117
  24	  29
  24	  47
  24	  52
  24	  75
  24	  78
  24	  89
  24	  92
  24	  94
  24	 106
  24	 111
  24	 117
  25	  38
  25	  56
  25	  73
  25	  81
  25	  82
  25	 100
  25	 112
  25	 114
  26	  44
  26	  56
  26	  66
  26	  70
  26	  83
  26	  86
  26	  88
  26	  97
  27	  48
  27	  49
  27	  53
  27	  65
  27	  80
  27	  97
  27	 113
  28	  29
  28	  43
  28	  56
  28	  62
  28	  74
  28	  83
  28	  98
  29	  30
  29	  42
  29	  47
  29	  61
  29	  68
  29	  76
  29	  96
  29	 103
  29	 104
  29	 108
  29	 111
  29	 117
  30	  45
  30	  50
  30	  53
  30	  92
  30	  98
  30	 100
  30	 105
  30	 109
  30	 118
  31	  32
  31	  40
  31	  42
  31	  51
  31	  58
  31	  66
  31	  77
  31	  80
  31	  96
  31	 100
  31	 107
  31	 115
  32	  43
  32	  45
  32	  49
  32	  52
  32	  63
  32	  70
  32	  73
  32	  80
  32	  85
  32	  95
  32	 100
  32	 111
  33	  38
  33	  68
  33	  71
  33	  84
  33	  88
  33	  94
  34	  36
  34	  38
  34	  48
  34	  62
  34	  63
  34	  66
  34	  71
  34	  89
  34	  97
  34	 100
  34	 103
  35	  52
  35	  60
  35	  65
  35	  85
  35	  90
  35	  98
  35	 116
  36	  40
  36	  42
  36	  51
  36	  52
  36	  56
  36	  57
  36	  61
  36	  64
  36	  73
  36	  84
  36	 101
  36	 109
  36	 113
  36	 117
  37	  44
  37	  51
  37	  53
  37	  60
  37	  62
  37	  94
  37	  98
  37	 103
  37	 113
  38	  48
  38	  51
  38	  66
  38	  71
  38	  77
  38	  86
  38	  95
  38	 104
  38	 108
  38	 109
  39	  55
  39	  70
  39	  71
  39	  74
  39	  75
  39	  93
  39	  97
  39	  98
  39	  99
  39	 107
  39	 110
  39	 113
  40	  46
  40	  62
  40	  77
  40	  80
  40	  88
  40	  92
  40	 101
  41	  43
  41	  48
  41	  67
  41	  69
  41	  74
  41	  76
  41	  79
  41	 103
  41	 106
  42	  46
  42	  48
  42	  59
  42	  70
  42	  76
  42	  77
  42	 118
  43	  92
  43	  95
  43	 101
  43	 111
  43	 119
  44	  45
  44	  68
  44	  69
  44	  99
  45	  62
  45	  79
  45	  87
  46	  54
  46	  66
  46	  76
  46	  96
  46	  98
  47	  55
  47	  64
  47	  65
  47	  67
  47	  84
  47	 108
  47	 112
  48	  49
  48	  50
  48	  52
  48	  68
  48	  69
  48	  70
  48	  74
  48	  92
  48	 110
  48	 114
  49	  76
  49	  80
  49	  81
  49	  88
  49	 100
  49	 106
  50	  53
  50	  76
  50	  92
  50	  93
  50	 108
  50	 110
  51	  79
  51	  95
  51	 104
  51	 111
  51	 114
  52	  54
  52	  55
  52	  61
  52	  68
  52	  69
  52	  72
  52	  84
  52	  91
  52	 116
  53	  61
  53	  72
  53	  73
  53	  76
  53	  77
  53	  90
  53	  96
  53	 111
  53	 113
  54	  55
  54	  74
  54	  96
  54	  99
  54	 103
  54	 117
  54	 118
  55	  59
  55	  73
  55	  82
  55	  92
  55	 100
  55	 112
  56	  60
  56	  68
  57	  64
  57	  74
  57	  81
  57	  92
  57	 105
  57	 119
  58	  72
  58	  83
  58	 107
  58	 119
  59	  63
  59	  73
  59	  76
  59	  79
  59	  96
  59	 104
  59	 106
  59	 119
  60	  62
  60	  66
  60	  71
  60	  87
  60	 101
  61	  83
  61	  89
  61	  96
  61	 106
  61	 107
  61	 115
  62	  74
  62	  81
  62	  89
  62	  94
  62	 101
  62	 103
  62	 113
  62	 114
  63	  78
  63	  85
  63	  95
  63	 106
  63	 112
  64	  68
  64	  72
  64	  78
  64	  81
  64	  82
  64	  87
  64	 114
  64	 117
  65	  67
  65	  72
  65	  91
  65	 102
  65	 111
  65	 119
  66	  69
  66	  70
  66	  72
  66	  74
  66	  86
  66	  90
  66	  99
  66	 103
  66	 104
  66	 106
  66	 107
  66	 116
  67	  70
  67	  72
  67	  74
  67	  75
  67	  90
  67	  95
  67	  98
  67	 107
  67	 111
  68	  70
  68	  81
  68	  94
  68	  96
  68	  98
  68	 100
  68	 113
  68	 116
  69	  70
  69	  85
  69	  88
  69	 102
  70	  80
  70	  97
  70	 100
  70	 101
  70	 110
  71	  79
  71	  81
  71	  96
  71	 100
  71	 109
  71	 117
  72	  75
  72	  82
  72	 102
  72	 105
  72	 109
  72	 112
  73	  75
  73	  81
  73	  96
  73	 114
  74	  76
  74	  89
  74	  90
  74	 119
  75	  76
  75	  86
  75	  87
  75	 100
  75	 109
  75	 119
  76	  80
  76	 104
  76	 110
  76	 113
  76	 118
  76	 119
  77	  83
  77	  84
  77	  85
  77	  89
  77	  95
  77	 118
  78	  81
  78	  85
  78	  92
  79	  82
  79	  91
  79	 100
  79	 103
  79	 107
  79	 114
  79	 115
  80	  82
  80	  85
  80	  91
  80	  98
  81	 115
  82	  85
  82	  87
  82	  89
  82	 112
  82	 113
  82	 114
  82	 116
  83	  95
  83	  97
  83	 102
  84	 100
  84	 118
  85	  87
  86	  95
  86	 106
  86	 114
  87	  92
  87	  96
  87	 107
  87	 118
  88	 107
  88	 119
  89	  94
  89	  97
  89	 106
  89	 109
  89	 118
  90	 103
  90	 106
  91	  95
  91	 108
  91	 116
  92	 100
  92	 103
  92	 105
  92	 107
  92	 117
  93	  95
  93	 108
  93	 110
  93	 114
  94	 114
  95	  96
  95	 104
  96	 112
  96	 113
  97	 116
  99	 100
  99	 108
  99	 119
 100	 103
 100	 109
 100	 114
 101	 118
 102	 104
 102	 108
 102	 109
 102	 112
 103	 109
 103	 114
 104	 105
 104	 109
 104	 112
 104	 117
 105	 107
 105	 118
 107	 112
 107	 116
 109	 112
 109	 118
 109	 119
 112	 114
 112	 116
 112	 117
 114	 119
 118	 119
;
